sat
(
(define-fun S () String "")
(define-fun J () String "a")
(define-fun X () String "aabbbbaa")
(define-fun H () String "")
(define-fun K () String "")
(define-fun R () String "")
(define-fun U () String "")
(define-fun G () String "aaabaababb")
(define-fun V () String "")
(define-fun L () String "")
(define-fun M () String "")
(define-fun Z () String "")
)
